
Welcome to IBM(R) ILOG(R) CPLEX(R) Interactive Optimizer 22.1.1.0
  with Simplex, Mixed Integer & Barrier Optimizers
5725-A06 5725-A29 5724-Y48 5724-Y49 5724-Y54 5724-Y55 5655-Y21
Copyright IBM Corp. 1988, 2022.  All Rights Reserved.

Type 'help' for a list of available commands.
Type 'help' followed by a command name for more
information on commands.

CPLEX> Selected objective sense:  MINIMIZE
Selected objective  name:  00000000
Selected RHS        name:  RHS1
Selected bound      name:  BOUND
Problem 'ee.mps' read.
Read time = 0.02 sec. (3.17 ticks)
CPLEX> New value for time limit in seconds: 7200
CPLEX> New value for parallel optimization mode: -1
CPLEX> New value for default parallel thread count: 40
CPLEX> New value for mixed integer optimality gap tolerance: 1e-13
CPLEX> Version identifier: 22.1.1.0 | 2022-11-28 | 9160aff4d
CPXPARAM_Threads                                 40
CPXPARAM_Parallel                                -1
CPXPARAM_TimeLimit                               7200
CPXPARAM_MIP_Tolerances_MIPGap                   1e-13
Found incumbent of value 0.000000 after 0.00 sec. (0.31 ticks)
Tried aggregator 2 times.
MIP Presolve eliminated 182 rows and 2745 columns.
MIP Presolve modified 6090 coefficients.
Aggregator did 713 substitutions.
Reduced MIP has 3636 rows, 7840 columns, and 28954 nonzeros.
Reduced MIP has 7840 binaries, 0 generals, 0 SOSs, and 0 indicators.
Presolve time = 0.07 sec. (69.14 ticks)
Probing time = 0.03 sec. (5.33 ticks)
Tried aggregator 1 time.
Detecting symmetries...
Reduced MIP has 3636 rows, 7840 columns, and 28954 nonzeros.
Reduced MIP has 7840 binaries, 0 generals, 0 SOSs, and 0 indicators.
Presolve time = 0.02 sec. (22.07 ticks)
Probing time = 0.02 sec. (5.12 ticks)
Clique table members: 18788.
MIP emphasis: balance optimality and feasibility.
MIP search method: dynamic search.
Parallel mode: opportunistic, using up to 40 threads.
Root relaxation solution time = 0.13 sec. (120.14 ticks)

        Nodes                                         Cuts/
   Node  Left     Objective  IInf  Best Integer    Best Bound    ItCnt     Gap

*     0+    0                            0.0000  -1.54000e+13              --- 
*     0+    0                      -8.19000e+12  -1.54000e+13            88.03%
      0     0  -1.53900e+13   115  -8.19000e+12  -1.53900e+13     2558   87.91%
*     0+    0                      -1.53900e+13  -1.53900e+13             0.00%
      0     0  -1.53900e+13   177  -1.53900e+13      Cuts: 77     4563    0.00%
*     0+    0                      -1.53900e+13  -1.53900e+13             0.00%
*     0+    0                      -1.53900e+13  -1.53900e+13             0.00%
      0     0  -1.53900e+13   265  -1.53900e+13     Cuts: 101     5251    0.00%
*     0+    0                      -1.53900e+13  -1.53900e+13             0.00%
      0    22        cutoff        -1.53900e+13  -1.53900e+13    10031    0.00%
Elapsed time = 2.84 sec. (1709.37 ticks, tree = 0.02 MB, solutions = 6)
    134    71        cutoff        -1.53900e+13  -1.53900e+13    32446    0.00%
    404   113        cutoff        -1.53900e+13  -1.53900e+13    61637    0.00%
    771   101  -1.53900e+13   212  -1.53900e+13  -1.53900e+13    57766    0.00%
   1169   216        cutoff        -1.53900e+13  -1.53900e+13    96359    0.00%
   1539   266        cutoff        -1.53900e+13  -1.53900e+13   120227    0.00%
   1846   290  -1.53900e+13   219  -1.53900e+13  -1.53900e+13   127997    0.00%
   2067   522  -1.53900e+13    84  -1.53900e+13  -1.53900e+13   205191    0.00%
   2224   677        cutoff        -1.53900e+13  -1.53900e+13   320425    0.00%
   2434   668  -1.53900e+13   176  -1.53900e+13  -1.53900e+13   306127    0.00%
   3649   842    infeasible        -1.53900e+13  -1.53900e+13   394428    0.00%
Elapsed time = 9.25 sec. (4822.93 ticks, tree = 6.41 MB, solutions = 16)
   4835  1478  -1.53900e+13   214  -1.53900e+13  -1.53900e+13   628732    0.00%
   5863  1433  -1.53900e+13   240  -1.53900e+13  -1.53900e+13   613181    0.00%
   6683  2739  -1.53900e+13   244  -1.53900e+13  -1.53900e+13  1049327    0.00%
   7251  2299  -1.53900e+13   245  -1.53900e+13  -1.53900e+13   880928    0.00%
   7884  2605  -1.53900e+13   332  -1.53900e+13  -1.53900e+13   987811    0.00%
   8450  2981        cutoff        -1.53900e+13  -1.53900e+13  1161943    0.00%
   8936  3331  -1.53900e+13   276  -1.53900e+13  -1.53900e+13  1410400    0.00%
   9291  3326  -1.53900e+13   104  -1.53900e+13  -1.53900e+13  1397340    0.00%
   9486  3407  -1.53900e+13   161  -1.53900e+13  -1.53900e+13  1469324    0.00%

Performing restart 1

Repeating presolve.
Tried aggregator 2 times.
MIP Presolve eliminated 115 rows and 521 columns.
MIP Presolve modified 1695 coefficients.
Aggregator did 73 substitutions.
Reduced MIP has 3404 rows, 7236 columns, and 26296 nonzeros.
Reduced MIP has 7236 binaries, 0 generals, 0 SOSs, and 0 indicators.
Presolve time = 0.04 sec. (32.89 ticks)
Tried aggregator 2 times.
MIP Presolve eliminated 82 rows and 159 columns.
MIP Presolve modified 33 coefficients.
Aggregator did 29 substitutions.
Reduced MIP has 3293 rows, 7029 columns, and 25612 nonzeros.
Reduced MIP has 7029 binaries, 0 generals, 0 SOSs, and 0 indicators.
Presolve time = 0.04 sec. (43.62 ticks)
Tried aggregator 1 time.
Reduced MIP has 3293 rows, 7029 columns, and 25612 nonzeros.
Reduced MIP has 7029 binaries, 0 generals, 0 SOSs, and 0 indicators.
Presolve time = 0.02 sec. (20.19 ticks)
Represolve time = 0.32 sec. (198.99 ticks)
   9539     0  -1.53900e+13   415  -1.53900e+13      Cuts: 27  1830868    0.00%
   9539     0  -1.53900e+13   412  -1.53900e+13      Cuts: 49  1831496    0.00%
   9539     0  -1.53900e+13   409  -1.53900e+13      Cuts: 45  1831935    0.00%
   9539     0  -1.53900e+13   420  -1.53900e+13      Cuts: 38  1832273    0.00%
   9539     0  -1.53900e+13   429  -1.53900e+13      Cuts: 45  1832654    0.00%
   9539     0  -1.53900e+13   499  -1.53900e+13      Cuts: 53  1832893    0.00%
   9539     0  -1.53900e+13   543  -1.53900e+13      Cuts: 53  1833066    0.00%
   9539    12    infeasible        -1.53900e+13  -1.53900e+13  1848409    0.00%
Elapsed time = 28.34 sec. (18206.10 ticks, tree = 0.02 MB, solutions = 18)
   9778     4  -1.53900e+13   155  -1.53900e+13  -1.53900e+13  1855469    0.00%
   9828    12  -1.53900e+13   252  -1.53900e+13  -1.53900e+13  1848556    0.00%

GUB cover cuts applied:  10
Clique cuts applied:  14
Cover cuts applied:  319
Mixed integer rounding cuts applied:  23
Zero-half cuts applied:  53
Lift and project cuts applied:  4
Gomory fractional cuts applied:  18

Root node processing (before b&c):
  Real time             =    1.81 sec. (1697.33 ticks)
Parallel b&c, 40 threads:
  Real time             =   28.62 sec. (19358.37 ticks)
  Sync time (average)   =    6.16 sec.
  Wait time (average)   =    0.16 sec.
                          ------------
Total (root+branch&cut) =   30.43 sec. (21055.71 ticks)

Solution pool: 20 solutions saved.

MIP - Integer optimal solution:  Objective = -1.5389998288e+13
Solution time =   30.57 sec.  Iterations = 1858592  Nodes = 9863
Deterministic time = 21055.74 ticks  (688.87 ticks/sec)

CPLEX> Solution 'p21' written to file 'ee.sol'.
CPLEX> 